437.0
427.0
421.0
426.0
424.0
412.0
421.0
426.0
421.0
433.0
425.0
426.0
426.0
427.0
425.0
422.0
416.0
422.0
420.0
425.0
427.0
421.0
429.0
427.0
426.0
431.0
428.0
418.0
430.0
429.0
426.0
422.0
418.0
439.0
422.0
428.0
422.0
434.0
429.0
432.0
433.0
432.0
430.0
435.0
421.0
413.0
427.0
416.0
422.0
424.0
422.0
430.0
420.0
428.0
421.0
434.0
424.0
412.0
425.0
432.0
425.0
427.0
430.0
421.0
422.0
422.0
427.0
425.0
423.0
423.0
422.0
419.0
416.0
416.0
431.0
423.0
426.0
426.0
420.0
417.0
424.0
422.0
425.0
425.0
418.0
422.0
421.0
422.0
424.0
425.0
427.0
424.0
425.0
430.0
421.0
421.0
422.0
425.0
427.0
432.0
